Route 1: 0 43 41 55 18 98 100 90 45 49 69 39 35 0
Route 2: 0 75 2 56 58 33 36 28 0
Route 3: 0 21 67 14 96 52 23 34 42 0
Route 4: 0 15 79 31 4 82 72 54 8 84 66 92 89 0
Route 5: 0 48 27 61 76 6 78 0
Route 6: 0 59 88 1 87 63 51 7 10 65 53 60 0
Route 7: 0 99 26 20 93 5 13 24 73 38 94 0
Route 8: 0 46 16 95 71 70 22 12 91 37 11 83 64 0
Route 9: 0 32 3 62 30 57 40 85 77 0
Route 10: 0 68 25 29 9 47 74 0
Route 11: 0 19 86 44 50 97 80 17 81 0
